HFVRP/X101-FSMFD.vrp
NAME: X101-FSMFD
COMMENT: Generated by Uchoa, Pecin, Pessoa, Poggi, Subramanian, and Vidal (2013). Modified by Sadykov, Pessoa and Uchoa (2017). Converted to PyVRP's VRPLIB dialect.
TYPE: HFVRP
DIMENSION: 101
VEHICLES: 500
EDGE_WEIGHT_TYPE: EUC_2D
NODE_COORD_SECTION
1	365	689
2	146	180
3	792	5
4	658	510
5	461	270
6	299	531
7	812	228
8	643	90
9	615	630
10	258	42
11	616	299
12	475	957
13	425	473
14	406	64
15	656	369
16	202	467
17	318	21
18	579	587
19	458	354
20	575	871
21	47	512
22	568	742
23	128	436
24	546	806
25	197	696
26	615	300
27	852	563
28	772	803
29	678	342
30	916	176
31	390	949
32	113	782
33	226	736
34	119	923
35	584	572
36	134	554
37	912	173
38	827	233
39	851	677
40	598	322
41	627	472
42	94	442
43	688	274
44	977	176
45	597	461
46	931	23
47	170	640
48	941	601
49	873	487
50	797	95
51	451	816
52	866	970
53	833	912
54	106	913
55	260	107
56	332	45
57	685	613
58	728	372
59	487	497
60	702	440
61	717	412
62	635	794
63	927	972
64	635	356
65	634	540
66	658	261
67	303	168
68	707	410
69	254	135
70	346	29
71	75	79
72	893	987
73	729	372
74	29	910
75	356	39
76	274	943
77	322	96
78	664	396
79	704	236
80	415	837
81	576	587
82	750	977
83	726	363
84	861	948
85	302	129
86	415	989
87	199	135
88	801	405
89	679	426
90	994	804
91	311	116
92	739	898
93	268	97
94	176	991
95	688	588
96	107	836
97	708	522
98	679	864
99	985	877
100	954	950
101	615	750
DEMAND_SECTION
1	0
2	38
3	51
4	73
5	70
6	58
7	54
8	1
9	98
10	62
11	98
12	25
13	86
14	46
15	27
16	17
17	97
18	74
19	81
20	62
21	59
22	23
23	62
24	66
25	35
26	53
27	18
28	87
29	32
30	4
31	61
32	95
33	23
34	15
35	5
36	53
37	97
38	70
39	32
40	27
41	42
42	67
43	76
44	15
45	39
46	14
47	43
48	11
49	93
50	53
51	44
52	80
53	87
54	97
55	67
56	72
57	50
58	8
59	58
60	55
61	67
62	89
63	38
64	65
65	3
66	5
67	46
68	100
69	52
70	28
71	96
72	18
73	16
74	7
75	73
76	76
77	6
78	64
79	39
80	86
81	70
82	14
83	83
84	96
85	43
86	12
87	73
88	2
89	21
90	18
91	55
92	75
93	68
94	100
95	61
96	24
97	40
98	48
99	51
100	78
101	35
CAPACITY_SECTION
1	141
2	141
3	141
4	141
5	141
6	141
7	141
8	141
9	141
10	141
11	141
12	141
13	141
14	141
15	141
16	141
17	141
18	141
19	141
20	141
21	141
22	141
23	141
24	141
25	141
26	141
27	141
28	141
29	141
30	141
31	141
32	141
33	141
34	141
35	141
36	141
37	141
38	141
39	141
40	141
41	141
42	141
43	141
44	141
45	141
46	141
47	141
48	141
49	141
50	141
51	141
52	141
53	141
54	141
55	141
56	141
57	141
58	141
59	141
60	141
61	141
62	141
63	141
64	141
65	141
66	141
67	141
68	141
69	141
70	141
71	141
72	141
73	141
74	141
75	141
76	141
77	141
78	141
79	141
80	141
81	141
82	141
83	141
84	141
85	141
86	141
87	141
88	141
89	141
90	141
91	141
92	141
93	141
94	141
95	141
96	141
97	141
98	141
99	141
100	141
101	168
102	168
103	168
104	168
105	168
106	168
107	168
108	168
109	168
110	168
111	168
112	168
113	168
114	168
115	168
116	168
117	168
118	168
119	168
120	168
121	168
122	168
123	168
124	168
125	168
126	168
127	168
128	168
129	168
130	168
131	168
132	168
133	168
134	168
135	168
136	168
137	168
138	168
139	168
140	168
141	168
142	168
143	168
144	168
145	168
146	168
147	168
148	168
149	168
150	168
151	168
152	168
153	168
154	168
155	168
156	168
157	168
158	168
159	168
160	168
161	168
162	168
163	168
164	168
165	168
166	168
167	168
168	168
169	168
170	168
171	168
172	168
173	168
174	168
175	168
176	168
177	168
178	168
179	168
180	168
181	168
182	168
183	168
184	168
185	168
186	168
187	168
188	168
189	168
190	168
191	168
192	168
193	168
194	168
195	168
196	168
197	168
198	168
199	168
200	168
201	200
202	200
203	200
204	200
205	200
206	200
207	200
208	200
209	200
210	200
211	200
212	200
213	200
214	200
215	200
216	200
217	200
218	200
219	200
220	200
221	200
222	200
223	200
224	200
225	200
226	200
227	200
228	200
229	200
230	200
231	200
232	200
233	200
234	200
235	200
236	200
237	200
238	200
239	200
240	200
241	200
242	200
243	200
244	200
245	200
246	200
247	200
248	200
249	200
250	200
251	200
252	200
253	200
254	200
255	200
256	200
257	200
258	200
259	200
260	200
261	200
262	200
263	200
264	200
265	200
266	200
267	200
268	200
269	200
270	200
271	200
272	200
273	200
274	200
275	200
276	200
277	200
278	200
279	200
280	200
281	200
282	200
283	200
284	200
285	200
286	200
287	200
288	200
289	200
290	200
291	200
292	200
293	200
294	200
295	200
296	200
297	200
298	200
299	200
300	200
301	238
302	238
303	238
304	238
305	238
306	238
307	238
308	238
309	238
310	238
311	238
312	238
313	238
314	238
315	238
316	238
317	238
318	238
319	238
320	238
321	238
322	238
323	238
324	238
325	238
326	238
327	238
328	238
329	238
330	238
331	238
332	238
333	238
334	238
335	238
336	238
337	238
338	238
339	238
340	238
341	238
342	238
343	238
344	238
345	238
346	238
347	238
348	238
349	238
350	238
351	238
352	238
353	238
354	238
355	238
356	238
357	238
358	238
359	238
360	238
361	238
362	238
363	238
364	238
365	238
366	238
367	238
368	238
369	238
370	238
371	238
372	238
373	238
374	238
375	238
376	238
377	238
378	238
379	238
380	238
381	238
382	238
383	238
384	238
385	238
386	238
387	238
388	238
389	238
390	238
391	238
392	238
393	238
394	238
395	238
396	238
397	238
398	238
399	238
400	238
401	283
402	283
403	283
404	283
405	283
406	283
407	283
408	283
409	283
410	283
411	283
412	283
413	283
414	283
415	283
416	283
417	283
418	283
419	283
420	283
421	283
422	283
423	283
424	283
425	283
426	283
427	283
428	283
429	283
430	283
431	283
432	283
433	283
434	283
435	283
436	283
437	283
438	283
439	283
440	283
441	283
442	283
443	283
444	283
445	283
446	283
447	283
448	283
449	283
450	283
451	283
452	283
453	283
454	283
455	283
456	283
457	283
458	283
459	283
460	283
461	283
462	283
463	283
464	283
465	283
466	283
467	283
468	283
469	283
470	283
471	283
472	283
473	283
474	283
475	283
476	283
477	283
478	283
479	283
480	283
481	283
482	283
483	283
484	283
485	283
486	283
487	283
488	283
489	283
490	283
491	283
492	283
493	283
494	283
495	283
496	283
497	283
498	283
499	283
500	283
VEHICLES_FIXED_COST_SECTION
1	24600
2	24600
3	24600
4	24600
5	24600
6	24600
7	24600
8	24600
9	24600
10	24600
11	24600
12	24600
13	24600
14	24600
15	24600
16	24600
17	24600
18	24600
19	24600
20	24600
21	24600
22	24600
23	24600
24	24600
25	24600
26	24600
27	24600
28	24600
29	24600
30	24600
31	24600
32	24600
33	24600
34	24600
35	24600
36	24600
37	24600
38	24600
39	24600
40	24600
41	24600
42	24600
43	24600
44	24600
45	24600
46	24600
47	24600
48	24600
49	24600
50	24600
51	24600
52	24600
53	24600
54	24600
55	24600
56	24600
57	24600
58	24600
59	24600
60	24600
61	24600
62	24600
63	24600
64	24600
65	24600
66	24600
67	24600
68	24600
69	24600
70	24600
71	24600
72	24600
73	24600
74	24600
75	24600
76	24600
77	24600
78	24600
79	24600
80	24600
81	24600
82	24600
83	24600
84	24600
85	24600
86	24600
87	24600
88	24600
89	24600
90	24600
91	24600
92	24600
93	24600
94	24600
95	24600
96	24600
97	24600
98	24600
99	24600
100	24600
101	30500
102	30500
103	30500
104	30500
105	30500
106	30500
107	30500
108	30500
109	30500
110	30500
111	30500
112	30500
113	30500
114	30500
115	30500
116	30500
117	30500
118	30500
119	30500
120	30500
121	30500
122	30500
123	30500
124	30500
125	30500
126	30500
127	30500
128	30500
129	30500
130	30500
131	30500
132	30500
133	30500
134	30500
135	30500
136	30500
137	30500
138	30500
139	30500
140	30500
141	30500
142	30500
143	30500
144	30500
145	30500
146	30500
147	30500
148	30500
149	30500
150	30500
151	30500
152	30500
153	30500
154	30500
155	30500
156	30500
157	30500
158	30500
159	30500
160	30500
161	30500
162	30500
163	30500
164	30500
165	30500
166	30500
167	30500
168	30500
169	30500
170	30500
171	30500
172	30500
173	30500
174	30500
175	30500
176	30500
177	30500
178	30500
179	30500
180	30500
181	30500
182	30500
183	30500
184	30500
185	30500
186	30500
187	30500
188	30500
189	30500
190	30500
191	30500
192	30500
193	30500
194	30500
195	30500
196	30500
197	30500
198	30500
199	30500
200	30500
201	37700
202	37700
203	37700
204	37700
205	37700
206	37700
207	37700
208	37700
209	37700
210	37700
211	37700
212	37700
213	37700
214	37700
215	37700
216	37700
217	37700
218	37700
219	37700
220	37700
221	37700
222	37700
223	37700
224	37700
225	37700
226	37700
227	37700
228	37700
229	37700
230	37700
231	37700
232	37700
233	37700
234	37700
235	37700
236	37700
237	37700
238	37700
239	37700
240	37700
241	37700
242	37700
243	37700
244	37700
245	37700
246	37700
247	37700
248	37700
249	37700
250	37700
251	37700
252	37700
253	37700
254	37700
255	37700
256	37700
257	37700
258	37700
259	37700
260	37700
261	37700
262	37700
263	37700
264	37700
265	37700
266	37700
267	37700
268	37700
269	37700
270	37700
271	37700
272	37700
273	37700
274	37700
275	37700
276	37700
277	37700
278	37700
279	37700
280	37700
281	37700
282	37700
283	37700
284	37700
285	37700
286	37700
287	37700
288	37700
289	37700
290	37700
291	37700
292	37700
293	37700
294	37700
295	37700
296	37700
297	37700
298	37700
299	37700
300	37700
301	46600
302	46600
303	46600
304	46600
305	46600
306	46600
307	46600
308	46600
309	46600
310	46600
311	46600
312	46600
313	46600
314	46600
315	46600
316	46600
317	46600
318	46600
319	46600
320	46600
321	46600
322	46600
323	46600
324	46600
325	46600
326	46600
327	46600
328	46600
329	46600
330	46600
331	46600
332	46600
333	46600
334	46600
335	46600
336	46600
337	46600
338	46600
339	46600
340	46600
341	46600
342	46600
343	46600
344	46600
345	46600
346	46600
347	46600
348	46600
349	46600
350	46600
351	46600
352	46600
353	46600
354	46600
355	46600
356	46600
357	46600
358	46600
359	46600
360	46600
361	46600
362	46600
363	46600
364	46600
365	46600
366	46600
367	46600
368	46600
369	46600
370	46600
371	46600
372	46600
373	46600
374	46600
375	46600
376	46600
377	46600
378	46600
379	46600
380	46600
381	46600
382	46600
383	46600
384	46600
385	46600
386	46600
387	46600
388	46600
389	46600
390	46600
391	46600
392	46600
393	46600
394	46600
395	46600
396	46600
397	46600
398	46600
399	46600
400	46600
401	57500
402	57500
403	57500
404	57500
405	57500
406	57500
407	57500
408	57500
409	57500
410	57500
411	57500
412	57500
413	57500
414	57500
415	57500
416	57500
417	57500
418	57500
419	57500
420	57500
421	57500
422	57500
423	57500
424	57500
425	57500
426	57500
427	57500
428	57500
429	57500
430	57500
431	57500
432	57500
433	57500
434	57500
435	57500
436	57500
437	57500
438	57500
439	57500
440	57500
441	57500
442	57500
443	57500
444	57500
445	57500
446	57500
447	57500
448	57500
449	57500
450	57500
451	57500
452	57500
453	57500
454	57500
455	57500
456	57500
457	57500
458	57500
459	57500
460	57500
461	57500
462	57500
463	57500
464	57500
465	57500
466	57500
467	57500
468	57500
469	57500
470	57500
471	57500
472	57500
473	57500
474	57500
475	57500
476	57500
477	57500
478	57500
479	57500
480	57500
481	57500
482	57500
483	57500
484	57500
485	57500
486	57500
487	57500
488	57500
489	57500
490	57500
491	57500
492	57500
493	57500
494	57500
495	57500
496	57500
497	57500
498	57500
499	57500
500	57500
VEHICLES_UNIT_DISTANCE_COST_SECTION
1	83
2	83
3	83
4	83
5	83
6	83
7	83
8	83
9	83
10	83
11	83
12	83
13	83
14	83
15	83
16	83
17	83
18	83
19	83
20	83
21	83
22	83
23	83
24	83
25	83
26	83
27	83
28	83
29	83
30	83
31	83
32	83
33	83
34	83
35	83
36	83
37	83
38	83
39	83
40	83
41	83
42	83
43	83
44	83
45	83
46	83
47	83
48	83
49	83
50	83
51	83
52	83
53	83
54	83
55	83
56	83
57	83
58	83
59	83
60	83
61	83
62	83
63	83
64	83
65	83
66	83
67	83
68	83
69	83
70	83
71	83
72	83
73	83
74	83
75	83
76	83
77	83
78	83
79	83
80	83
81	83
82	83
83	83
84	83
85	83
86	83
87	83
88	83
89	83
90	83
91	83
92	83
93	83
94	83
95	83
96	83
97	83
98	83
99	83
100	83
101	92
102	92
103	92
104	92
105	92
106	92
107	92
108	92
109	92
110	92
111	92
112	92
113	92
114	92
115	92
116	92
117	92
118	92
119	92
120	92
121	92
122	92
123	92
124	92
125	92
126	92
127	92
128	92
129	92
130	92
131	92
132	92
133	92
134	92
135	92
136	92
137	92
138	92
139	92
140	92
141	92
142	92
143	92
144	92
145	92
146	92
147	92
148	92
149	92
150	92
151	92
152	92
153	92
154	92
155	92
156	92
157	92
158	92
159	92
160	92
161	92
162	92
163	92
164	92
165	92
166	92
167	92
168	92
169	92
170	92
171	92
172	92
173	92
174	92
175	92
176	92
177	92
178	92
179	92
180	92
181	92
182	92
183	92
184	92
185	92
186	92
187	92
188	92
189	92
190	92
191	92
192	92
193	92
194	92
195	92
196	92
197	92
198	92
199	92
200	92
201	100
202	100
203	100
204	100
205	100
206	100
207	100
208	100
209	100
210	100
211	100
212	100
213	100
214	100
215	100
216	100
217	100
218	100
219	100
220	100
221	100
222	100
223	100
224	100
225	100
226	100
227	100
228	100
229	100
230	100
231	100
232	100
233	100
234	100
235	100
236	100
237	100
238	100
239	100
240	100
241	100
242	100
243	100
244	100
245	100
246	100
247	100
248	100
249	100
250	100
251	100
252	100
253	100
254	100
255	100
256	100
257	100
258	100
259	100
260	100
261	100
262	100
263	100
264	100
265	100
266	100
267	100
268	100
269	100
270	100
271	100
272	100
273	100
274	100
275	100
276	100
277	100
278	100
279	100
280	100
281	100
282	100
283	100
284	100
285	100
286	100
287	100
288	100
289	100
290	100
291	100
292	100
293	100
294	100
295	100
296	100
297	100
298	100
299	100
300	100
301	180
302	180
303	180
304	180
305	180
306	180
307	180
308	180
309	180
310	180
311	180
312	180
313	180
314	180
315	180
316	180
317	180
318	180
319	180
320	180
321	180
322	180
323	180
324	180
325	180
326	180
327	180
328	180
329	180
330	180
331	180
332	180
333	180
334	180
335	180
336	180
337	180
338	180
339	180
340	180
341	180
342	180
343	180
344	180
345	180
346	180
347	180
348	180
349	180
350	180
351	180
352	180
353	180
354	180
355	180
356	180
357	180
358	180
359	180
360	180
361	180
362	180
363	180
364	180
365	180
366	180
367	180
368	180
369	180
370	180
371	180
372	180
373	180
374	180
375	180
376	180
377	180
378	180
379	180
380	180
381	180
382	180
383	180
384	180
385	180
386	180
387	180
388	180
389	180
390	180
391	180
392	180
393	180
394	180
395	180
396	180
397	180
398	180
399	180
400	180
401	116
402	116
403	116
404	116
405	116
406	116
407	116
408	116
409	116
410	116
411	116
412	116
413	116
414	116
415	116
416	116
417	116
418	116
419	116
420	116
421	116
422	116
423	116
424	116
425	116
426	116
427	116
428	116
429	116
430	116
431	116
432	116
433	116
434	116
435	116
436	116
437	116
438	116
439	116
440	116
441	116
442	116
443	116
444	116
445	116
446	116
447	116
448	116
449	116
450	116
451	116
452	116
453	116
454	116
455	116
456	116
457	116
458	116
459	116
460	116
461	116
462	116
463	116
464	116
465	116
466	116
467	116
468	116
469	116
470	116
471	116
472	116
473	116
474	116
475	116
476	116
477	116
478	116
479	116
480	116
481	116
482	116
483	116
484	116
485	116
486	116
487	116
488	116
489	116
490	116
491	116
492	116
493	116
494	116
495	116
496	116
497	116
498	116
499	116
500	116
DEPOT_SECTION
1
EOF
